language ESSENCE' 1.0

letting jobs = 102
letting horizon = 794
letting resourcesRenew = 2
letting resourcesNonrenew = 2
letting resourceLimits = [46, 44, 472, 493]
letting successors = [[2, 3, 4, 5, 6, 7, 8, 9, 10, 11, 12, 13, 16, 17, 18, 19, 20, 21, 23, 24, 25, 27, 28, 29, 31, 34, 39, 43], [71, 58, 53, 51, 50, 46, 38, 37, 36, 33, 30, 26, 15], [101, 98, 72, 68, 64, 63, 61, 60, 59, 58, 55, 51, 50, 49, 46, 42, 14], [101, 98, 72, 55, 54, 52, 51, 50, 49, 37, 32, 14], [95, 68, 63, 60, 58, 55, 54, 53, 49, 37, 14], [101, 98, 70, 69, 65, 57, 52, 51, 50, 48, 40, 37, 32, 22], [96, 95, 94, 93, 90, 89, 85, 84, 68, 65, 64, 63, 62, 61, 57, 56, 50, 49, 48, 47, 35], [101, 100, 99, 98, 97, 92, 89, 83, 72, 71, 70, 68, 64, 58, 54, 51, 50, 32], [100, 98, 97, 93, 91, 85, 73, 71, 70, 68, 64, 61, 57, 56, 50, 46, 41, 30], [98, 97, 95, 73, 68, 62, 58, 57, 55, 54, 52, 46, 45, 40, 37], [97, 94, 93, 86, 85, 73, 70, 68, 63, 61, 56, 55, 50, 47, 46, 41, 30], [101, 99, 95, 94, 93, 90, 86, 85, 84, 81, 72, 68, 61, 51, 50, 49, 47, 46, 41], [97, 95, 94, 93, 92, 91, 89, 88, 87, 86, 85, 70, 69, 68, 63, 62, 55, 53, 50, 37], [100, 99, 94, 93, 92, 90, 87, 86, 82, 81, 73, 71, 70, 69, 67, 62, 47, 44, 41], [100, 99, 98, 95, 94, 90, 89, 88, 83, 80, 79, 72, 70, 62, 59, 57, 55, 54, 40], [101, 94, 89, 88, 86, 84, 71, 70, 68, 64, 62, 61, 50, 46, 37], [99, 98, 96, 94, 93, 92, 90, 89, 87, 85, 84, 83, 81, 73, 71, 68, 66, 61, 57, 51, 50], [97, 95, 94, 91, 90, 89, 85, 84, 68, 65, 63, 57, 55, 35], [99, 97, 96, 95, 88, 87, 86, 84, 80, 77, 71, 68, 67, 64, 56, 55, 54], [99, 97, 96, 93, 89, 88, 87, 86, 85, 84, 83, 70, 68, 67, 66, 64, 63, 50], [96, 95, 94, 93, 92, 91, 89, 87, 85, 83, 70, 68, 66, 63, 61, 51], [96, 94, 92, 90, 89, 88, 86, 85, 82, 68, 67, 63, 61, 56, 55], [98, 91, 88, 84, 71, 68, 64, 63, 58, 46], [96, 94, 89, 87, 84, 70, 69, 68, 55, 37], [100, 92, 90, 86, 85, 76, 72, 67, 66, 63, 56, 52], [96, 95, 94, 90, 89, 88, 87, 86, 85, 84, 82, 77, 76, 67, 66, 64, 61], [100, 97, 93, 90, 89, 85, 83, 82, 81, 80, 77, 76, 71, 69, 67, 66, 61], [94, 92, 90, 88, 83, 82, 80, 78, 72, 68, 62, 59, 55], [101, 99, 93, 90, 89, 86, 84, 83, 82, 80, 78, 77, 74, 68, 55], [90, 89, 88, 87, 84, 83, 82, 81, 80, 79, 78, 76, 69, 67, 66, 62], [97, 92, 91, 84, 83, 82, 81, 80, 79, 77, 69, 67, 66, 65, 61], [95, 94, 93, 91, 87, 85, 84, 82, 78, 67, 66, 63, 62], [95, 92, 90, 84, 82, 81, 78, 68, 67, 66, 62, 57], [100, 95, 91, 86, 84, 83, 81, 78, 74, 69, 66, 50], [98, 87, 86, 83, 77, 76, 71, 70, 67, 66], [93, 92, 90, 88, 84, 80, 79, 74, 55], [90, 82, 80, 77, 76, 67, 66, 56], [87, 86, 85, 84, 83, 78, 76, 75, 74, 63], [95, 92, 86, 85, 84, 80, 71, 67, 62], [91, 86, 85, 84, 82, 81, 77, 75, 67], [96, 89, 88, 80, 79, 78, 76, 66], [95, 87, 81, 79, 77, 76, 67], [97, 88, 80, 69, 61], [97, 91, 85, 84, 76, 75, 74], [91, 88, 86, 79, 78, 75, 74], [92, 87, 78, 69, 67], [91, 88, 83, 79, 75, 74], [92, 91, 83, 82, 81, 74], [82, 79, 77, 76, 69], [82, 80, 77, 76, 75], [88, 82, 77, 76, 74], [91, 89, 82, 80, 78], [84, 80, 78, 67], [93, 85, 61], [81, 76, 66], [83, 81, 79], [86, 77, 75], [85, 82, 76], [87, 76, 74], [86, 85, 81], [78, 74], [77, 74], [80, 77], [81, 79], [76, 74], [75], [74], [79], [75], [78], [79], [74], [75], [102], [102], [102], [102], [102], [102], [102], [102], [102], [102], [102], [102], [102], [102], [102], [102], [102], [102], [102], [102], [102], [102], [102], [102], [102], [102], [102], [102], []]
letting durations = [[0], [1, 7, 8], [3, 5, 8], [1, 7, 10], [1, 4, 10], [1, 4, 8], [1, 4, 7], [6, 7, 8], [2, 2, 9], [2, 3, 9], [2, 9, 10], [1, 7, 10], [8, 9, 10], [6, 7, 10], [7, 9, 9], [2, 3, 8], [1, 4, 6], [3, 6, 7], [7, 7, 10], [2, 6, 9], [3, 9, 9], [1, 6, 7], [1, 3, 8], [2, 4, 5], [2, 6, 6], [2, 3, 5], [2, 4, 8], [1, 5, 6], [2, 6, 8], [1, 7, 8], [2, 4, 5], [7, 9, 10], [8, 8, 9], [3, 5, 6], [1, 4, 8], [2, 7, 10], [7, 8, 8], [2, 3, 3], [4, 9, 9], [6, 7, 8], [1, 7, 8], [3, 8, 9], [6, 7, 7], [2, 2, 8], [1, 5, 6], [3, 8, 9], [1, 3, 8], [1, 5, 8], [1, 2, 5], [1, 8, 9], [4, 6, 7], [1, 2, 8], [4, 5, 8], [7, 8, 10], [4, 6, 10], [1, 1, 8], [2, 8, 9], [5, 9, 10], [3, 5, 6], [1, 5, 6], [2, 3, 4], [2, 6, 7], [2, 7, 7], [1, 9, 10], [1, 2, 9], [3, 6, 7], [1, 2, 3], [1, 2, 7], [4, 6, 9], [2, 4, 5], [1, 6, 7], [3, 4, 10], [2, 4, 8], [8, 8, 10], [2, 3, 4], [6, 7, 8], [3, 5, 7], [4, 7, 10], [5, 7, 9], [1, 5, 8], [3, 3, 8], [4, 5, 7], [1, 1, 8], [1, 2, 6], [5, 8, 8], [1, 4, 8], [2, 2, 8], [3, 8, 10], [2, 4, 6], [3, 8, 9], [5, 6, 8], [3, 7, 10], [5, 8, 10], [6, 9, 10], [1, 2, 6], [4, 6, 9], [4, 5, 6], [8, 9, 10], [4, 7, 9], [9, 9, 10], [6, 8, 8], [0]]
letting resourceUsage = [[[0, 0, 0, 0]], [[5, 0, 4, 4], [0, 7, 4, 3], [5, 0, 3, 3]], [[4, 0, 10, 6], [3, 0, 7, 6], [2, 0, 5, 6]], [[0, 5, 6, 4], [8, 0, 5, 3], [0, 3, 5, 2]], [[0, 9, 3, 7], [5, 0, 3, 7], [4, 0, 3, 4]], [[3, 0, 3, 6], [3, 0, 2, 4], [0, 4, 1, 3]], [[0, 9, 2, 7], [0, 7, 2, 6], [0, 6, 2, 4]], [[8, 0, 9, 7], [7, 0, 7, 6], [0, 3, 4, 6]], [[0, 4, 4, 7], [5, 0, 4, 6], [0, 2, 2, 5]], [[0, 9, 8, 4], [5, 0, 8, 4], [0, 9, 6, 4]], [[6, 0, 9, 8], [4, 0, 8, 8], [3, 0, 8, 7]], [[6, 0, 8, 10], [5, 0, 7, 8], [4, 0, 7, 5]], [[3, 0, 3, 3], [2, 0, 2, 3], [1, 0, 1, 3]], [[1, 0, 9, 4], [1, 0, 7, 3], [1, 0, 1, 3]], [[10, 0, 7, 10], [0, 5, 6, 8], [7, 0, 2, 8]], [[10, 0, 4, 5], [7, 0, 3, 3], [0, 8, 3, 2]], [[9, 0, 7, 7], [9, 0, 6, 7], [9, 0, 6, 5]], [[0, 6, 8, 10], [0, 6, 8, 8], [2, 0, 6, 7]], [[0, 8, 6, 7], [6, 0, 6, 5], [0, 8, 2, 4]], [[4, 0, 4, 8], [0, 8, 4, 7], [2, 0, 4, 6]], [[0, 8, 8, 4], [0, 8, 6, 2], [7, 0, 6, 1]], [[3, 0, 8, 5], [3, 0, 8, 4], [0, 5, 8, 4]], [[6, 0, 9, 9], [0, 4, 8, 6], [0, 4, 6, 1]], [[0, 8, 8, 7], [2, 0, 6, 6], [1, 0, 5, 5]], [[8, 0, 6, 7], [0, 6, 6, 5], [7, 0, 6, 5]], [[3, 0, 9, 8], [3, 0, 8, 8], [1, 0, 7, 8]], [[10, 0, 8, 3], [0, 6, 8, 3], [0, 5, 5, 3]], [[8, 0, 4, 7], [4, 0, 4, 7], [2, 0, 3, 7]], [[0, 6, 3, 6], [6, 0, 3, 4], [6, 0, 3, 1]], [[9, 0, 2, 9], [0, 8, 2, 9], [0, 8, 1, 9]], [[6, 0, 8, 6], [0, 5, 6, 6], [0, 4, 4, 3]], [[4, 0, 6, 8], [3, 0, 5, 6], [0, 5, 4, 3]], [[7, 0, 6, 5], [0, 4, 5, 5], [0, 4, 1, 2]], [[0, 9, 9, 4], [0, 9, 9, 3], [1, 0, 8, 3]], [[3, 0, 5, 6], [0, 10, 4, 5], [0, 10, 2, 4]], [[0, 4, 3, 6], [0, 3, 2, 5], [4, 0, 1, 4]], [[8, 0, 6, 8], [8, 0, 3, 6], [0, 2, 3, 4]], [[9, 0, 4, 2], [0, 6, 4, 2], [8, 0, 4, 2]], [[6, 0, 4, 7], [0, 5, 2, 6], [3, 0, 1, 6]], [[0, 5, 5, 4], [0, 3, 5, 3], [0, 1, 4, 3]], [[5, 0, 7, 8], [5, 0, 4, 7], [0, 2, 4, 6]], [[7, 0, 5, 1], [6, 0, 2, 1], [5, 0, 1, 1]], [[0, 9, 8, 8], [2, 0, 7, 6], [0, 6, 7, 6]], [[8, 0, 8, 8], [0, 2, 6, 5], [6, 0, 6, 4]], [[7, 0, 7, 10], [0, 3, 4, 8], [0, 3, 3, 8]], [[0, 8, 7, 6], [2, 0, 7, 5], [0, 4, 7, 3]], [[0, 7, 3, 7], [0, 5, 3, 4], [1, 0, 3, 3]], [[0, 6, 3, 9], [6, 0, 3, 9], [0, 1, 2, 9]], [[0, 2, 6, 10], [0, 1, 5, 5], [3, 0, 2, 3]], [[4, 0, 3, 4], [0, 6, 2, 4], [0, 6, 2, 2]], [[0, 10, 7, 7], [8, 0, 7, 6], [7, 0, 6, 5]], [[0, 3, 5, 4], [7, 0, 5, 3], [6, 0, 4, 2]], [[10, 0, 7, 6], [10, 0, 6, 6], [10, 0, 6, 5]], [[0, 8, 7, 8], [0, 6, 5, 8], [0, 6, 5, 7]], [[6, 0, 6, 7], [0, 8, 4, 3], [0, 8, 4, 2]], [[10, 0, 5, 5], [0, 8, 3, 3], [10, 0, 3, 3]], [[8, 0, 4, 9], [5, 0, 4, 9], [2, 0, 3, 9]], [[0, 8, 5, 7], [3, 0, 4, 5], [2, 0, 4, 4]], [[0, 6, 6, 5], [3, 0, 4, 4], [3, 0, 3, 4]], [[9, 0, 10, 9], [5, 0, 9, 8], [4, 0, 9, 8]], [[9, 0, 9, 6], [7, 0, 9, 5], [0, 5, 8, 5]], [[4, 0, 7, 8], [0, 6, 6, 5], [0, 6, 5, 5]], [[0, 9, 7, 8], [10, 0, 6, 5], [0, 8, 5, 4]], [[9, 0, 8, 8], [0, 4, 8, 5], [0, 3, 6, 2]], [[10, 0, 6, 4], [7, 0, 3, 4], [3, 0, 1, 3]], [[3, 0, 7, 8], [2, 0, 5, 8], [1, 0, 1, 6]], [[7, 0, 8, 7], [5, 0, 7, 4], [0, 9, 5, 3]], [[0, 8, 9, 7], [0, 5, 5, 4], [8, 0, 1, 2]], [[0, 9, 6, 7], [0, 8, 5, 7], [5, 0, 5, 6]], [[0, 2, 4, 8], [6, 0, 4, 6], [4, 0, 4, 3]], [[0, 9, 5, 9], [2, 0, 3, 8], [0, 9, 3, 8]], [[0, 9, 9, 5], [0, 7, 8, 4], [0, 3, 8, 2]], [[6, 0, 3, 4], [5, 0, 3, 3], [0, 8, 1, 1]], [[6, 0, 6, 9], [0, 7, 4, 8], [6, 0, 1, 8]], [[5, 0, 5, 5], [4, 0, 5, 3], [0, 6, 5, 3]], [[5, 0, 6, 5], [4, 0, 6, 4], [2, 0, 6, 2]], [[9, 0, 9, 10], [0, 5, 8, 9], [0, 4, 8, 7]], [[7, 0, 8, 8], [0, 5, 7, 6], [0, 3, 7, 3]], [[10, 0, 1, 7], [0, 3, 1, 5], [8, 0, 1, 3]], [[10, 0, 5, 3], [0, 7, 4, 2], [8, 0, 4, 2]], [[0, 7, 8, 9], [4, 0, 8, 8], [0, 3, 7, 8]], [[7, 0, 7, 2], [0, 1, 7, 2], [0, 1, 7, 1]], [[0, 2, 5, 7], [8, 0, 4, 5], [6, 0, 4, 5]], [[9, 0, 8, 10], [8, 0, 8, 9], [0, 5, 8, 9]], [[0, 6, 10, 8], [0, 3, 8, 7], [2, 0, 7, 5]], [[0, 8, 2, 3], [0, 7, 1, 3], [9, 0, 1, 3]], [[0, 8, 9, 7], [4, 0, 8, 7], [3, 0, 4, 7]], [[10, 0, 6, 6], [0, 7, 6, 3], [8, 0, 6, 1]], [[0, 10, 7, 6], [0, 5, 6, 5], [0, 3, 1, 5]], [[8, 0, 6, 5], [0, 7, 5, 4], [7, 0, 5, 3]], [[0, 10, 6, 8], [0, 7, 6, 8], [4, 0, 6, 8]], [[5, 0, 4, 6], [0, 4, 3, 3], [0, 3, 3, 3]], [[0, 9, 4, 7], [6, 0, 4, 4], [0, 7, 4, 3]], [[0, 6, 4, 5], [6, 0, 4, 5], [5, 0, 2, 5]], [[0, 8, 8, 9], [0, 8, 8, 8], [1, 0, 8, 6]], [[2, 0, 6, 7], [0, 8, 5, 4], [2, 0, 3, 3]], [[0, 9, 7, 9], [0, 7, 5, 8], [0, 6, 3, 7]], [[8, 0, 9, 9], [8, 0, 8, 8], [7, 0, 8, 6]], [[3, 0, 6, 6], [3, 0, 6, 5], [3, 0, 6, 3]], [[8, 0, 7, 6], [0, 6, 3, 5], [0, 6, 1, 4]], [[0, 7, 9, 9], [0, 5, 7, 4], [3, 0, 7, 2]], [[0, 0, 0, 0]]]
